id: 1242
name: ns2124243
group: miplib2010
method: 1

Gurobi 7.0.2 (linux64, Matlab) logging started Fri Apr 20 04:44:54 2018


Gurobi 7.0.2 (linux64) logging started Fri Apr 20 04:44:54 2018

Optimize a model with 139280 rows, 156083 columns and 429032 nonzeros
Coefficient statistics:
  Matrix range     [5e-01, 1e+00]
  Objective range  [2e+01, 6e+03]
  Bounds range     [1e+00, 1e+00]
  RHS range        [1e+00, 1e+01]
Presolve removed 108641 rows and 108828 columns
Presolve time: 0.10s
Presolved: 30639 rows, 47255 columns, 186689 nonzeros

Iteration    Objective       Primal Inf.    Dual Inf.      Time
       0    1.5968000e+03   1.871162e+03   0.000000e+00      0s
   37439    5.3998333e+04   0.000000e+00   0.000000e+00      5s

Solved in 37439 iterations and 4.55 seconds
Optimal objective  5.399833333e+04
status: OPTIMAL
